c instance by G2
c solution = 00011
c Known solution cost is 322 
p cnf 5 30
w 62 71 59 97 33
2 3 -1 0
2 -1 -3 0
3 -2 4 0
3 -5 4 0
2 -3 1 0
-3 -2 4 0
-3 -2 4 0
2 -4 -3 0
-5 4 -2 0
5 4 2 0
-3 -2 4 0
5 -3 -4 0
1 -3 4 0
3 -1 -4 0
2 4 -3 0
-4 -1 5 0
2 -3 5 0
5 -1 2 0
-3 -2 -4 0
-5 -2 1 0
2 3 -1 0
4 -2 -5 0
5 4 3 0
1 4 3 0
-1 -3 -4 0
4 -5 -2 0
-4 3 5 0
4 -2 5 0
-1 -5 -2 0
-3 1 4 0
